Traveling Salesman Problem/TSP_generados/Aleatorio1621103375_12.tsp
NAME: Aleatorio1621103375_12.tsp
COMMENT: Randomly generated scenario
TYPE: TSP
DIMENSION: 12
EDGE_WEIGHT_TYPE: ATT
NODE_COORD_SECTION
1 6.66 11.16
2 47.81 24.64
3 41.85 25.92
4 21.23 33.9
5 8.12 13.63
6 7.81 16.94
7 0.06 12.48
8 15.31 20.89
9 21.55 6.54
10 39.8 9.82
11 20.19 48.7
12 47.89 12.34
