Traveling Salesman Problem/TSP_generados/Aleatorio1621103375_12.opt.tour
NAME: Aleatorio1621103375_12.opt.tour
COMMENT: Optimal solution for Aleatorio1621103375_12 (148.18068570218654)
TYPE: TOUR
DIMENSION: 12
TOUR_SECTION
1 5 9 10 12 2 3 11 4 8 6 7
-1
EOF
